benchmarks_CP/INST_36x36/20/inst36x36_20_87.dzn
S=6;
start=[|
31,	-1,	-1,	-1,	-1,	36,	-1,	7,	8,	22,	-1,	1,	-1,	-1,	-1,	-1,	-1,	-1,	-1,	30,	-1,	-1,	34,	-1,	-1,	-1,	-1,	-1,	23,	-1,	-1,	-1,	-1,	-1,	-1,	2|
-1,	-1,	16,	-1,	-1,	-1,	-1,	-1,	-1,	-1,	-1,	-1,	8,	-1,	-1,	24,	-1,	-1,	-1,	17,	-1,	25,	-1,	-1,	21,	-1,	-1,	-1,	-1,	-1,	-1,	-1,	5,	-1,	-1,	13|
-1,	-1,	-1,	-1,	-1,	7,	-1,	-1,	-1,	-1,	-1,	-1,	4,	19,	27,	6,	-1,	-1,	-1,	-1,	-1,	-1,	-1,	8,	10,	-1,	-1,	-1,	-1,	22,	-1,	-1,	-1,	-1,	-1,	17|
-1,	-1,	9,	-1,	-1,	8,	-1,	-1,	-1,	-1,	-1,	-1,	-1,	-1,	-1,	-1,	-1,	-1,	-1,	32,	29,	-1,	-1,	13,	-1,	-1,	-1,	-1,	25,	-1,	-1,	-1,	-1,	-1,	10,	-1|
-1,	-1,	11,	18,	-1,	-1,	14,	-1,	13,	-1,	-1,	-1,	-1,	17,	-1,	-1,	-1,	-1,	20,	31,	-1,	-1,	-1,	-1,	-1,	-1,	3,	15,	-1,	-1,	-1,	-1,	8,	-1,	-1,	33|
-1,	-1,	-1,	-1,	-1,	-1,	-1,	-1,	-1,	-1,	-1,	-1,	-1,	-1,	-1,	-1,	-1,	-1,	-1,	6,	-1,	-1,	-1,	-1,	-1,	-1,	-1,	5,	-1,	-1,	-1,	31,	-1,	-1,	-1,	22|
-1,	-1,	-1,	-1,	-1,	-1,	4,	-1,	-1,	-1,	35,	13,	-1,	-1,	-1,	27,	-1,	-1,	-1,	-1,	-1,	-1,	-1,	25,	-1,	-1,	15,	14,	-1,	-1,	-1,	-1,	-1,	-1,	-1,	-1|
-1,	-1,	-1,	-1,	-1,	-1,	-1,	-1,	-1,	-1,	-1,	-1,	-1,	22,	-1,	-1,	-1,	-1,	-1,	24,	-1,	-1,	-1,	-1,	-1,	-1,	-1,	35,	-1,	-1,	-1,	8,	12,	-1,	-1,	6|
-1,	-1,	-1,	-1,	-1,	20,	-1,	-1,	-1,	8,	5,	-1,	17,	-1,	-1,	-1,	-1,	-1,	-1,	-1,	15,	-1,	-1,	-1,	-1,	-1,	-1,	-1,	-1,	-1,	-1,	-1,	-1,	-1,	-1,	-1|
-1,	-1,	12,	-1,	17,	-1,	-1,	-1,	-1,	-1,	-1,	-1,	-1,	-1,	-1,	-1,	-1,	-1,	32,	-1,	10,	-1,	-1,	-1,	-1,	-1,	-1,	-1,	-1,	-1,	31,	4,	-1,	-1,	-1,	15|
-1,	-1,	-1,	30,	-1,	-1,	-1,	25,	31,	-1,	-1,	-1,	-1,	-1,	-1,	-1,	-1,	16,	-1,	-1,	-1,	-1,	-1,	-1,	-1,	-1,	-1,	19,	34,	4,	-1,	-1,	-1,	-1,	-1,	-1|
-1,	-1,	-1,	-1,	-1,	-1,	-1,	-1,	-1,	-1,	-1,	-1,	-1,	-1,	-1,	23,	-1,	-1,	-1,	-1,	-1,	-1,	27,	-1,	-1,	-1,	-1,	-1,	-1,	-1,	-1,	20,	-1,	-1,	-1,	-1|
-1,	-1,	-1,	-1,	-1,	-1,	-1,	-1,	-1,	-1,	-1,	-1,	-1,	-1,	-1,	-1,	7,	36,	-1,	-1,	-1,	-1,	-1,	32,	-1,	21,	-1,	-1,	-1,	-1,	-1,	-1,	-1,	-1,	-1,	-1|
-1,	-1,	-1,	-1,	-1,	-1,	-1,	-1,	32,	-1,	-1,	-1,	12,	-1,	-1,	-1,	-1,	-1,	17,	8,	-1,	-1,	36,	-1,	19,	-1,	-1,	-1,	-1,	-1,	16,	-1,	-1,	-1,	5,	4|
-1,	-1,	-1,	-1,	-1,	-1,	17,	-1,	-1,	-1,	-1,	-1,	11,	30,	-1,	-1,	-1,	31,	-1,	-1,	-1,	-1,	-1,	16,	-1,	-1,	24,	-1,	-1,	-1,	-1,	-1,	33,	-1,	-1,	-1|
-1,	-1,	-1,	-1,	-1,	-1,	10,	-1,	-1,	-1,	-1,	-1,	-1,	-1,	29,	-1,	-1,	-1,	11,	-1,	27,	-1,	-1,	-1,	-1,	-1,	-1,	-1,	-1,	-1,	17,	-1,	-1,	14,	-1,	-1|
-1,	-1,	34,	-1,	-1,	-1,	-1,	-1,	-1,	-1,	-1,	-1,	-1,	-1,	-1,	-1,	-1,	-1,	-1,	-1,	-1,	-1,	-1,	-1,	-1,	-1,	-1,	-1,	-1,	-1,	-1,	-1,	-1,	-1,	-1,	-1|
-1,	-1,	-1,	-1,	-1,	17,	-1,	34,	-1,	-1,	-1,	29,	-1,	-1,	-1,	-1,	-1,	-1,	-1,	-1,	-1,	-1,	-1,	-1,	-1,	-1,	7,	1,	-1,	-1,	6,	-1,	-1,	8,	-1,	19|
-1,	-1,	3,	-1,	-1,	-1,	9,	11,	-1,	34,	14,	-1,	-1,	4,	-1,	-1,	-1,	-1,	-1,	22,	-1,	-1,	-1,	-1,	32,	-1,	-1,	-1,	-1,	-1,	-1,	16,	-1,	-1,	-1,	-1|
-1,	-1,	-1,	-1,	-1,	-1,	-1,	-1,	-1,	-1,	-1,	-1,	-1,	-1,	-1,	25,	-1,	-1,	-1,	-1,	5,	-1,	33,	18,	35,	-1,	-1,	31,	-1,	-1,	-1,	-1,	-1,	-1,	-1,	14|
-1,	-1,	15,	-1,	21,	-1,	-1,	-1,	30,	-1,	-1,	-1,	20,	-1,	-1,	-1,	-1,	19,	29,	-1,	-1,	-1,	8,	-1,	-1,	-1,	-1,	25,	4,	-1,	12,	-1,	7,	-1,	-1,	-1|
22,	-1,	30,	-1,	26,	-1,	-1,	-1,	1,	-1,	23,	-1,	-1,	-1,	-1,	7,	5,	27,	28,	-1,	-1,	-1,	-1,	-1,	-1,	-1,	-1,	-1,	10,	-1,	35,	-1,	-1,	-1,	-1,	-1|
-1,	-1,	-1,	-1,	-1,	-1,	-1,	13,	-1,	16,	19,	-1,	-1,	-1,	26,	3,	-1,	-1,	21,	-1,	-1,	35,	-1,	-1,	-1,	15,	29,	-1,	-1,	-1,	-1,	-1,	-1,	-1,	20,	-1|
-1,	-1,	-1,	-1,	-1,	-1,	-1,	-1,	-1,	-1,	4,	-1,	-1,	-1,	-1,	-1,	-1,	14,	-1,	-1,	19,	-1,	-1,	-1,	-1,	26,	-1,	-1,	-1,	-1,	5,	-1,	-1,	6,	-1,	-1|
-1,	-1,	7,	-1,	-1,	-1,	-1,	-1,	-1,	26,	-1,	-1,	-1,	-1,	-1,	-1,	-1,	-1,	-1,	-1,	-1,	-1,	12,	-1,	-1,	-1,	-1,	-1,	-1,	-1,	-1,	-1,	-1,	1,	-1,	-1|
-1,	11,	-1,	-1,	-1,	-1,	-1,	-1,	-1,	-1,	-1,	-1,	-1,	-1,	-1,	-1,	-1,	-1,	-1,	-1,	-1,	-1,	-1,	-1,	-1,	29,	-1,	-1,	-1,	-1,	4,	-1,	-1,	-1,	-1,	23|
29,	6,	-1,	-1,	30,	-1,	-1,	-1,	35,	-1,	-1,	-1,	-1,	-1,	16,	-1,	-1,	-1,	-1,	-1,	-1,	-1,	-1,	-1,	-1,	-1,	-1,	-1,	15,	-1,	-1,	-1,	-1,	-1,	-1,	-1|
-1,	34,	-1,	-1,	-1,	26,	15,	-1,	-1,	-1,	32,	-1,	-1,	-1,	35,	-1,	24,	-1,	-1,	-1,	-1,	-1,	11,	-1,	-1,	19,	-1,	-1,	-1,	28,	25,	-1,	22,	-1,	-1,	-1|
-1,	-1,	-1,	24,	-1,	-1,	-1,	-1,	-1,	-1,	18,	-1,	-1,	8,	-1,	-1,	-1,	3,	-1,	-1,	-1,	-1,	-1,	-1,	-1,	-1,	-1,	-1,	-1,	11,	-1,	-1,	-1,	-1,	-1,	-1|
-1,	36,	35,	-1,	19,	-1,	-1,	-1,	-1,	-1,	-1,	-1,	26,	15,	-1,	2,	-1,	-1,	-1,	-1,	20,	6,	-1,	-1,	7,	-1,	-1,	-1,	-1,	-1,	-1,	-1,	-1,	-1,	-1,	-1|
-1,	-1,	-1,	27,	-1,	-1,	-1,	-1,	-1,	-1,	-1,	-1,	-1,	-1,	3,	-1,	-1,	-1,	-1,	-1,	-1,	-1,	-1,	-1,	-1,	-1,	-1,	-1,	-1,	25,	-1,	35,	-1,	-1,	-1,	-1|
-1,	-1,	2,	-1,	-1,	25,	26,	-1,	-1,	-1,	-1,	-1,	-1,	-1,	-1,	-1,	-1,	-1,	34,	-1,	-1,	-1,	-1,	-1,	-1,	-1,	-1,	-1,	-1,	-1,	-1,	-1,	-1,	-1,	-1,	-1|
35,	31,	-1,	-1,	-1,	16,	-1,	-1,	10,	-1,	-1,	22,	-1,	-1,	-1,	-1,	-1,	-1,	33,	2,	-1,	8,	28,	5,	-1,	-1,	36,	7,	12,	-1,	-1,	-1,	-1,	-1,	17,	-1|
-1,	24,	18,	-1,	23,	-1,	-1,	-1,	34,	-1,	-1,	-1,	27,	-1,	-1,	-1,	-1,	2,	-1,	-1,	-1,	10,	-1,	12,	-1,	4,	-1,	-1,	-1,	-1,	-1,	28,	26,	15,	-1,	-1|
-1,	22,	-1,	-1,	-1,	-1,	-1,	-1,	-1,	-1,	-1,	-1,	-1,	-1,	-1,	-1,	-1,	10,	-1,	-1,	-1,	-1,	-1,	-1,	-1,	-1,	-1,	-1,	-1,	-1,	-1,	-1,	-1,	-1,	-1,	-1|
-1,	13,	8,	36,	-1,	-1,	-1,	-1,	-1,	-1,	-1,	-1,	25,	-1,	-1,	-1,	-1,	23,	-1,	-1,	-1,	-1,	-1,	-1,	1,	-1,	10,	24,	-1,	29,	-1,	-1,	14,	-1,	4,	-1|];
